p edges 64 214
e 1 50
e 1 51
e 1 37
e 1 23
e 1 5
e 1 27
e 1 60
e 1 61
e 1 64
e 2 38
e 2 64
e 2 30
e 2 24
e 3 57
e 3 12
e 3 45
e 3 54
e 4 35
e 4 20
e 4 6
e 4 8
e 4 13
e 4 32
e 5 17
e 5 35
e 5 55
e 5 18
e 5 27
e 6 52
e 6 37
e 6 54
e 6 25
e 6 27
e 6 32
e 7 40
e 7 12
e 7 60
e 7 39
e 7 16
e 8 34
e 8 50
e 8 60
e 8 30
e 8 16
e 9 19
e 9 55
e 9 45
e 9 43
e 9 44
e 9 29
e 9 51
e 9 63
e 9 16
e 10 50
e 10 36
e 10 37
e 10 22
e 10 46
e 10 64
e 11 42
e 11 36
e 11 60
e 11 31
e 11 24
e 12 33
e 12 36
e 12 59
e 12 29
e 12 46
e 12 63
e 12 64
e 13 33
e 13 51
e 13 53
e 13 56
e 13 25
e 13 46
e 14 40
e 14 51
e 14 20
e 14 47
e 14 24
e 15 17
e 15 18
e 15 55
e 15 57
e 15 41
e 15 29
e 16 36
e 16 39
e 16 47
e 16 22
e 16 23
e 16 56
e 16 57
e 16 29
e 16 54
e 17 50
e 17 27
e 18 34
e 18 58
e 18 28
e 18 29
e 18 61
e 19 34
e 19 20
e 19 54
e 19 55
e 19 46
e 19 62
e 20 50
e 20 23
e 20 40
e 20 42
e 20 44
e 20 60
e 20 48
e 20 32
e 21 27
e 21 39
e 21 32
e 22 35
e 22 30
e 22 49
e 22 51
e 22 53
e 22 54
e 22 59
e 22 28
e 22 62
e 22 63
e 23 50
e 23 57
e 23 45
e 24 60
e 24 26
e 25 51
e 25 40
e 25 56
e 25 47
e 25 32
e 26 57
e 26 61
e 26 51
e 26 37
e 27 39
e 27 30
e 27 48
e 28 59
e 28 30
e 29 56
e 29 34
e 29 42
e 29 59
e 29 61
e 29 62
e 30 59
e 30 40
e 30 61
e 30 43
e 30 64
e 31 37
e 31 48
e 32 53
e 32 60
e 33 53
e 33 38
e 33 41
e 33 61
e 33 46
e 34 58
e 34 40
e 34 56
e 34 62
e 34 63
e 35 62
e 36 52
e 36 38
e 36 59
e 36 47
e 37 50
e 37 47
e 38 51
e 38 50
e 39 46
e 41 53
e 41 63
e 41 59
e 41 61
e 42 46
e 43 49
e 43 57
e 43 59
e 43 63
e 44 50
e 44 59
e 45 53
e 45 59
e 45 48
e 47 59
e 47 63
e 48 63
e 49 61
e 49 63
e 51 56
e 52 55
e 56 60
e 56 61
e 58 64
e 58 61
e 58 62
e 59 63
e 60 62
e 62 63
